(set-option :produce-models true)
(set-logic QF_LRA)
(set-info :notes | Strip-packing problem.|)
(declare-fun x0 () Real)
(declare-fun y0 () Real)
(declare-fun x1 () Real)
(declare-fun y1 () Real)
(declare-fun x2 () Real)
(declare-fun y2 () Real)
(declare-fun x3 () Real)
(declare-fun y3 () Real)
(declare-fun x4 () Real)
(declare-fun y4 () Real)
(declare-fun x5 () Real)
(declare-fun y5 () Real)
(declare-fun x6 () Real)
(declare-fun y6 () Real)
(declare-fun x7 () Real)
(declare-fun y7 () Real)
(declare-fun x8 () Real)
(declare-fun y8 () Real)
(declare-fun x9 () Real)
(declare-fun y9 () Real)
(declare-fun x10 () Real)
(declare-fun y10 () Real)
(declare-fun x11 () Real)
(declare-fun y11 () Real)
(declare-fun x12 () Real)
(declare-fun y12 () Real)
(declare-fun x13 () Real)
(declare-fun y13 () Real)
(declare-fun x14 () Real)
(declare-fun y14 () Real)
(declare-fun z () Real)
(declare-fun c () Real)
(assert (and (= c z) (and (>= x0 0) 
(and (>= y0 0) 
(and (>= x1 0) 
(and (>= y1 0) 
(and (>= x2 0) 
(and (>= y2 0) 
(and (>= x3 0) 
(and (>= y3 0) 
(and (>= x4 0) 
(and (>= y4 0) 
(and (>= x5 0) 
(and (>= y5 0) 
(and (>= x6 0) 
(and (>= y6 0) 
(and (>= x7 0) 
(and (>= y7 0) 
(and (>= x8 0) 
(and (>= y8 0) 
(and (>= x9 0) 
(and (>= y9 0) 
(and (>= x10 0) 
(and (>= y10 0) 
(and (>= x11 0) 
(and (>= y11 0) 
(and (>= x12 0) 
(and (>= y12 0) 
(and (>= x13 0) 
(and (>= y13 0) 
(and (>= x14 0) 
(and (>= y14 0) 
(and (>= z 0) 
(and (>= c 0) 
(and (<= (+ x0 0.9678186101) z) 
(and (<= 0.9310563297 y0) 
(and (<= y0 1.0) 
(and (<= x0 (- 5.7922468697 0.9678186101)) 
(and (>= x0 0) 
(and (<= (+ x1 0.5343914864) z) 
(and (<= 0.9256802614 y1) 
(and (<= y1 1.0) 
(and (<= x1 (- 5.7922468697 0.5343914864)) 
(and (>= x1 0) 
(and (<= (+ x2 0.1568504123) z) 
(and (<= 0.8646088202 y2) 
(and (<= y2 1.0) 
(and (<= x2 (- 5.7922468697 0.1568504123)) 
(and (>= x2 0) 
(and (<= (+ x3 0.5212556171) z) 
(and (<= 0.8438888604 y3) 
(and (<= y3 1.0) 
(and (<= x3 (- 5.7922468697 0.5212556171)) 
(and (>= x3 0) 
(and (<= (+ x4 0.8906181497) z) 
(and (<= 0.7736410697 y4) 
(and (<= y4 1.0) 
(and (<= x4 (- 5.7922468697 0.8906181497)) 
(and (>= x4 0) 
(and (<= (+ x5 0.1117319235) z) 
(and (<= 0.600005604 y5) 
(and (<= y5 1.0) 
(and (<= x5 (- 5.7922468697 0.1117319235)) 
(and (>= x5 0) 
(and (<= (+ x6 0.7714607966) z) 
(and (<= 0.484282716 y6) 
(and (<= y6 1.0) 
(and (<= x6 (- 5.7922468697 0.7714607966)) 
(and (>= x6 0) 
(and (<= (+ x7 0.08045998) z) 
(and (<= 0.4722306555 y7) 
(and (<= y7 1.0) 
(and (<= x7 (- 5.7922468697 0.08045998)) 
(and (>= x7 0) 
(and (<= (+ x8 0.2511254795) z) 
(and (<= 0.4555774508 y8) 
(and (<= y8 1.0) 
(and (<= x8 (- 5.7922468697 0.2511254795)) 
(and (>= x8 0) 
(and (<= (+ x9 0.4934277501) z) 
(and (<= 0.2215045414 y9) 
(and (<= y9 1.0) 
(and (<= x9 (- 5.7922468697 0.4934277501)) 
(and (>= x9 0) 
(and (<= (+ x10 0.6799158407) z) 
(and (<= 0.1749079819 y10) 
(and (<= y10 1.0) 
(and (<= x10 (- 5.7922468697 0.6799158407)) 
(and (>= x10 0) 
(and (<= (+ x11 0.4113798172) z) 
(and (<= 0.1402133265 y11) 
(and (<= y11 1.0) 
(and (<= x11 (- 5.7922468697 0.4113798172)) 
(and (>= x11 0) 
(and (<= (+ x12 0.0321034065) z) 
(and (<= 0.0654806736 y12) 
(and (<= y12 1.0) 
(and (<= x12 (- 5.7922468697 0.0321034065)) 
(and (>= x12 0) 
(and (<= (+ x13 0.4162695144) z) 
(and (<= 0.052800478 y13) 
(and (<= y13 1.0) 
(and (<= x13 (- 5.7922468697 0.4162695144)) 
(and (>= x13 0) 
(and (<= (+ x14 0.9070785538) z) 
(and (<= 0.0256361089 y14) 
(and (<= y14 1.0) 
(and (<= x14 (- 5.7922468697 0.9070785538)) 
(and (>= x14 0) 
(and (<= c 5.7922468697) 
(and (or (<= (+ x0 0.9678186101) x1) (or (<= (+ x1 0.5343914864) x0) (or (>= (- y0 0.9310563297) y1) (or (>= (- y1 0.9256802614) y0))))) 
(and (or (<= (+ x0 0.9678186101) x2) (or (<= (+ x2 0.1568504123) x0) (or (>= (- y0 0.9310563297) y2) (or (>= (- y2 0.8646088202) y0))))) 
(and (or (<= (+ x0 0.9678186101) x3) (or (<= (+ x3 0.5212556171) x0) (or (>= (- y0 0.9310563297) y3) (or (>= (- y3 0.8438888604) y0))))) 
(and (or (<= (+ x0 0.9678186101) x4) (or (<= (+ x4 0.8906181497) x0) (or (>= (- y0 0.9310563297) y4) (or (>= (- y4 0.7736410697) y0))))) 
(and (or (<= (+ x0 0.9678186101) x5) (or (<= (+ x5 0.1117319235) x0) (or (>= (- y0 0.9310563297) y5) (or (>= (- y5 0.600005604) y0))))) 
(and (or (<= (+ x0 0.9678186101) x6) (or (<= (+ x6 0.7714607966) x0) (or (>= (- y0 0.9310563297) y6) (or (>= (- y6 0.484282716) y0))))) 
(and (or (<= (+ x0 0.9678186101) x7) (or (<= (+ x7 0.08045998) x0) (or (>= (- y0 0.9310563297) y7) (or (>= (- y7 0.4722306555) y0))))) 
(and (or (<= (+ x0 0.9678186101) x8) (or (<= (+ x8 0.2511254795) x0) (or (>= (- y0 0.9310563297) y8) (or (>= (- y8 0.4555774508) y0))))) 
(and (or (<= (+ x0 0.9678186101) x9) (or (<= (+ x9 0.4934277501) x0) (or (>= (- y0 0.9310563297) y9) (or (>= (- y9 0.2215045414) y0))))) 
(and (or (<= (+ x0 0.9678186101) x10) (or (<= (+ x10 0.6799158407) x0) (or (>= (- y0 0.9310563297) y10) (or (>= (- y10 0.1749079819) y0))))) 
(and (or (<= (+ x0 0.9678186101) x11) (or (<= (+ x11 0.4113798172) x0) (or (>= (- y0 0.9310563297) y11) (or (>= (- y11 0.1402133265) y0))))) 
(and (or (<= (+ x0 0.9678186101) x12) (or (<= (+ x12 0.0321034065) x0) (or (>= (- y0 0.9310563297) y12) (or (>= (- y12 0.0654806736) y0))))) 
(and (or (<= (+ x0 0.9678186101) x13) (or (<= (+ x13 0.4162695144) x0) (or (>= (- y0 0.9310563297) y13) (or (>= (- y13 0.052800478) y0))))) 
(and (or (<= (+ x0 0.9678186101) x14) (or (<= (+ x14 0.9070785538) x0) (or (>= (- y0 0.9310563297) y14) (or (>= (- y14 0.0256361089) y0))))) 
(and (or (<= (+ x1 0.5343914864) x2) (or (<= (+ x2 0.1568504123) x1) (or (>= (- y1 0.9256802614) y2) (or (>= (- y2 0.8646088202) y1))))) 
(and (or (<= (+ x1 0.5343914864) x3) (or (<= (+ x3 0.5212556171) x1) (or (>= (- y1 0.9256802614) y3) (or (>= (- y3 0.8438888604) y1))))) 
(and (or (<= (+ x1 0.5343914864) x4) (or (<= (+ x4 0.8906181497) x1) (or (>= (- y1 0.9256802614) y4) (or (>= (- y4 0.7736410697) y1))))) 
(and (or (<= (+ x1 0.5343914864) x5) (or (<= (+ x5 0.1117319235) x1) (or (>= (- y1 0.9256802614) y5) (or (>= (- y5 0.600005604) y1))))) 
(and (or (<= (+ x1 0.5343914864) x6) (or (<= (+ x6 0.7714607966) x1) (or (>= (- y1 0.9256802614) y6) (or (>= (- y6 0.484282716) y1))))) 
(and (or (<= (+ x1 0.5343914864) x7) (or (<= (+ x7 0.08045998) x1) (or (>= (- y1 0.9256802614) y7) (or (>= (- y7 0.4722306555) y1))))) 
(and (or (<= (+ x1 0.5343914864) x8) (or (<= (+ x8 0.2511254795) x1) (or (>= (- y1 0.9256802614) y8) (or (>= (- y8 0.4555774508) y1))))) 
(and (or (<= (+ x1 0.5343914864) x9) (or (<= (+ x9 0.4934277501) x1) (or (>= (- y1 0.9256802614) y9) (or (>= (- y9 0.2215045414) y1))))) 
(and (or (<= (+ x1 0.5343914864) x10) (or (<= (+ x10 0.6799158407) x1) (or (>= (- y1 0.9256802614) y10) (or (>= (- y10 0.1749079819) y1))))) 
(and (or (<= (+ x1 0.5343914864) x11) (or (<= (+ x11 0.4113798172) x1) (or (>= (- y1 0.9256802614) y11) (or (>= (- y11 0.1402133265) y1))))) 
(and (or (<= (+ x1 0.5343914864) x12) (or (<= (+ x12 0.0321034065) x1) (or (>= (- y1 0.9256802614) y12) (or (>= (- y12 0.0654806736) y1))))) 
(and (or (<= (+ x1 0.5343914864) x13) (or (<= (+ x13 0.4162695144) x1) (or (>= (- y1 0.9256802614) y13) (or (>= (- y13 0.052800478) y1))))) 
(and (or (<= (+ x1 0.5343914864) x14) (or (<= (+ x14 0.9070785538) x1) (or (>= (- y1 0.9256802614) y14) (or (>= (- y14 0.0256361089) y1))))) 
(and (or (<= (+ x2 0.1568504123) x3) (or (<= (+ x3 0.5212556171) x2) (or (>= (- y2 0.8646088202) y3) (or (>= (- y3 0.8438888604) y2))))) 
(and (or (<= (+ x2 0.1568504123) x4) (or (<= (+ x4 0.8906181497) x2) (or (>= (- y2 0.8646088202) y4) (or (>= (- y4 0.7736410697) y2))))) 
(and (or (<= (+ x2 0.1568504123) x5) (or (<= (+ x5 0.1117319235) x2) (or (>= (- y2 0.8646088202) y5) (or (>= (- y5 0.600005604) y2))))) 
(and (or (<= (+ x2 0.1568504123) x6) (or (<= (+ x6 0.7714607966) x2) (or (>= (- y2 0.8646088202) y6) (or (>= (- y6 0.484282716) y2))))) 
(and (or (<= (+ x2 0.1568504123) x7) (or (<= (+ x7 0.08045998) x2) (or (>= (- y2 0.8646088202) y7) (or (>= (- y7 0.4722306555) y2))))) 
(and (or (<= (+ x2 0.1568504123) x8) (or (<= (+ x8 0.2511254795) x2) (or (>= (- y2 0.8646088202) y8) (or (>= (- y8 0.4555774508) y2))))) 
(and (or (<= (+ x2 0.1568504123) x9) (or (<= (+ x9 0.4934277501) x2) (or (>= (- y2 0.8646088202) y9) (or (>= (- y9 0.2215045414) y2))))) 
(and (or (<= (+ x2 0.1568504123) x10) (or (<= (+ x10 0.6799158407) x2) (or (>= (- y2 0.8646088202) y10) (or (>= (- y10 0.1749079819) y2))))) 
(and (or (<= (+ x2 0.1568504123) x11) (or (<= (+ x11 0.4113798172) x2) (or (>= (- y2 0.8646088202) y11) (or (>= (- y11 0.1402133265) y2))))) 
(and (or (<= (+ x2 0.1568504123) x12) (or (<= (+ x12 0.0321034065) x2) (or (>= (- y2 0.8646088202) y12) (or (>= (- y12 0.0654806736) y2))))) 
(and (or (<= (+ x2 0.1568504123) x13) (or (<= (+ x13 0.4162695144) x2) (or (>= (- y2 0.8646088202) y13) (or (>= (- y13 0.052800478) y2))))) 
(and (or (<= (+ x2 0.1568504123) x14) (or (<= (+ x14 0.9070785538) x2) (or (>= (- y2 0.8646088202) y14) (or (>= (- y14 0.0256361089) y2))))) 
(and (or (<= (+ x3 0.5212556171) x4) (or (<= (+ x4 0.8906181497) x3) (or (>= (- y3 0.8438888604) y4) (or (>= (- y4 0.7736410697) y3))))) 
(and (or (<= (+ x3 0.5212556171) x5) (or (<= (+ x5 0.1117319235) x3) (or (>= (- y3 0.8438888604) y5) (or (>= (- y5 0.600005604) y3))))) 
(and (or (<= (+ x3 0.5212556171) x6) (or (<= (+ x6 0.7714607966) x3) (or (>= (- y3 0.8438888604) y6) (or (>= (- y6 0.484282716) y3))))) 
(and (or (<= (+ x3 0.5212556171) x7) (or (<= (+ x7 0.08045998) x3) (or (>= (- y3 0.8438888604) y7) (or (>= (- y7 0.4722306555) y3))))) 
(and (or (<= (+ x3 0.5212556171) x8) (or (<= (+ x8 0.2511254795) x3) (or (>= (- y3 0.8438888604) y8) (or (>= (- y8 0.4555774508) y3))))) 
(and (or (<= (+ x3 0.5212556171) x9) (or (<= (+ x9 0.4934277501) x3) (or (>= (- y3 0.8438888604) y9) (or (>= (- y9 0.2215045414) y3))))) 
(and (or (<= (+ x3 0.5212556171) x10) (or (<= (+ x10 0.6799158407) x3) (or (>= (- y3 0.8438888604) y10) (or (>= (- y10 0.1749079819) y3))))) 
(and (or (<= (+ x3 0.5212556171) x11) (or (<= (+ x11 0.4113798172) x3) (or (>= (- y3 0.8438888604) y11) (or (>= (- y11 0.1402133265) y3))))) 
(and (or (<= (+ x3 0.5212556171) x12) (or (<= (+ x12 0.0321034065) x3) (or (>= (- y3 0.8438888604) y12) (or (>= (- y12 0.0654806736) y3))))) 
(and (or (<= (+ x3 0.5212556171) x13) (or (<= (+ x13 0.4162695144) x3) (or (>= (- y3 0.8438888604) y13) (or (>= (- y13 0.052800478) y3))))) 
(and (or (<= (+ x3 0.5212556171) x14) (or (<= (+ x14 0.9070785538) x3) (or (>= (- y3 0.8438888604) y14) (or (>= (- y14 0.0256361089) y3))))) 
(and (or (<= (+ x4 0.8906181497) x5) (or (<= (+ x5 0.1117319235) x4) (or (>= (- y4 0.7736410697) y5) (or (>= (- y5 0.600005604) y4))))) 
(and (or (<= (+ x4 0.8906181497) x6) (or (<= (+ x6 0.7714607966) x4) (or (>= (- y4 0.7736410697) y6) (or (>= (- y6 0.484282716) y4))))) 
(and (or (<= (+ x4 0.8906181497) x7) (or (<= (+ x7 0.08045998) x4) (or (>= (- y4 0.7736410697) y7) (or (>= (- y7 0.4722306555) y4))))) 
(and (or (<= (+ x4 0.8906181497) x8) (or (<= (+ x8 0.2511254795) x4) (or (>= (- y4 0.7736410697) y8) (or (>= (- y8 0.4555774508) y4))))) 
(and (or (<= (+ x4 0.8906181497) x9) (or (<= (+ x9 0.4934277501) x4) (or (>= (- y4 0.7736410697) y9) (or (>= (- y9 0.2215045414) y4))))) 
(and (or (<= (+ x4 0.8906181497) x10) (or (<= (+ x10 0.6799158407) x4) (or (>= (- y4 0.7736410697) y10) (or (>= (- y10 0.1749079819) y4))))) 
(and (or (<= (+ x4 0.8906181497) x11) (or (<= (+ x11 0.4113798172) x4) (or (>= (- y4 0.7736410697) y11) (or (>= (- y11 0.1402133265) y4))))) 
(and (or (<= (+ x4 0.8906181497) x12) (or (<= (+ x12 0.0321034065) x4) (or (>= (- y4 0.7736410697) y12) (or (>= (- y12 0.0654806736) y4))))) 
(and (or (<= (+ x4 0.8906181497) x13) (or (<= (+ x13 0.4162695144) x4) (or (>= (- y4 0.7736410697) y13) (or (>= (- y13 0.052800478) y4))))) 
(and (or (<= (+ x4 0.8906181497) x14) (or (<= (+ x14 0.9070785538) x4) (or (>= (- y4 0.7736410697) y14) (or (>= (- y14 0.0256361089) y4))))) 
(and (or (<= (+ x5 0.1117319235) x6) (or (<= (+ x6 0.7714607966) x5) (or (>= (- y5 0.600005604) y6) (or (>= (- y6 0.484282716) y5))))) 
(and (or (<= (+ x5 0.1117319235) x7) (or (<= (+ x7 0.08045998) x5) (or (>= (- y5 0.600005604) y7) (or (>= (- y7 0.4722306555) y5))))) 
(and (or (<= (+ x5 0.1117319235) x8) (or (<= (+ x8 0.2511254795) x5) (or (>= (- y5 0.600005604) y8) (or (>= (- y8 0.4555774508) y5))))) 
(and (or (<= (+ x5 0.1117319235) x9) (or (<= (+ x9 0.4934277501) x5) (or (>= (- y5 0.600005604) y9) (or (>= (- y9 0.2215045414) y5))))) 
(and (or (<= (+ x5 0.1117319235) x10) (or (<= (+ x10 0.6799158407) x5) (or (>= (- y5 0.600005604) y10) (or (>= (- y10 0.1749079819) y5))))) 
(and (or (<= (+ x5 0.1117319235) x11) (or (<= (+ x11 0.4113798172) x5) (or (>= (- y5 0.600005604) y11) (or (>= (- y11 0.1402133265) y5))))) 
(and (or (<= (+ x5 0.1117319235) x12) (or (<= (+ x12 0.0321034065) x5) (or (>= (- y5 0.600005604) y12) (or (>= (- y12 0.0654806736) y5))))) 
(and (or (<= (+ x5 0.1117319235) x13) (or (<= (+ x13 0.4162695144) x5) (or (>= (- y5 0.600005604) y13) (or (>= (- y13 0.052800478) y5))))) 
(and (or (<= (+ x5 0.1117319235) x14) (or (<= (+ x14 0.9070785538) x5) (or (>= (- y5 0.600005604) y14) (or (>= (- y14 0.0256361089) y5))))) 
(and (or (<= (+ x6 0.7714607966) x7) (or (<= (+ x7 0.08045998) x6) (or (>= (- y6 0.484282716) y7) (or (>= (- y7 0.4722306555) y6))))) 
(and (or (<= (+ x6 0.7714607966) x8) (or (<= (+ x8 0.2511254795) x6) (or (>= (- y6 0.484282716) y8) (or (>= (- y8 0.4555774508) y6))))) 
(and (or (<= (+ x6 0.7714607966) x9) (or (<= (+ x9 0.4934277501) x6) (or (>= (- y6 0.484282716) y9) (or (>= (- y9 0.2215045414) y6))))) 
(and (or (<= (+ x6 0.7714607966) x10) (or (<= (+ x10 0.6799158407) x6) (or (>= (- y6 0.484282716) y10) (or (>= (- y10 0.1749079819) y6))))) 
(and (or (<= (+ x6 0.7714607966) x11) (or (<= (+ x11 0.4113798172) x6) (or (>= (- y6 0.484282716) y11) (or (>= (- y11 0.1402133265) y6))))) 
(and (or (<= (+ x6 0.7714607966) x12) (or (<= (+ x12 0.0321034065) x6) (or (>= (- y6 0.484282716) y12) (or (>= (- y12 0.0654806736) y6))))) 
(and (or (<= (+ x6 0.7714607966) x13) (or (<= (+ x13 0.4162695144) x6) (or (>= (- y6 0.484282716) y13) (or (>= (- y13 0.052800478) y6))))) 
(and (or (<= (+ x6 0.7714607966) x14) (or (<= (+ x14 0.9070785538) x6) (or (>= (- y6 0.484282716) y14) (or (>= (- y14 0.0256361089) y6))))) 
(and (or (<= (+ x7 0.08045998) x8) (or (<= (+ x8 0.2511254795) x7) (or (>= (- y7 0.4722306555) y8) (or (>= (- y8 0.4555774508) y7))))) 
(and (or (<= (+ x7 0.08045998) x9) (or (<= (+ x9 0.4934277501) x7) (or (>= (- y7 0.4722306555) y9) (or (>= (- y9 0.2215045414) y7))))) 
(and (or (<= (+ x7 0.08045998) x10) (or (<= (+ x10 0.6799158407) x7) (or (>= (- y7 0.4722306555) y10) (or (>= (- y10 0.1749079819) y7))))) 
(and (or (<= (+ x7 0.08045998) x11) (or (<= (+ x11 0.4113798172) x7) (or (>= (- y7 0.4722306555) y11) (or (>= (- y11 0.1402133265) y7))))) 
(and (or (<= (+ x7 0.08045998) x12) (or (<= (+ x12 0.0321034065) x7) (or (>= (- y7 0.4722306555) y12) (or (>= (- y12 0.0654806736) y7))))) 
(and (or (<= (+ x7 0.08045998) x13) (or (<= (+ x13 0.4162695144) x7) (or (>= (- y7 0.4722306555) y13) (or (>= (- y13 0.052800478) y7))))) 
(and (or (<= (+ x7 0.08045998) x14) (or (<= (+ x14 0.9070785538) x7) (or (>= (- y7 0.4722306555) y14) (or (>= (- y14 0.0256361089) y7))))) 
(and (or (<= (+ x8 0.2511254795) x9) (or (<= (+ x9 0.4934277501) x8) (or (>= (- y8 0.4555774508) y9) (or (>= (- y9 0.2215045414) y8))))) 
(and (or (<= (+ x8 0.2511254795) x10) (or (<= (+ x10 0.6799158407) x8) (or (>= (- y8 0.4555774508) y10) (or (>= (- y10 0.1749079819) y8))))) 
(and (or (<= (+ x8 0.2511254795) x11) (or (<= (+ x11 0.4113798172) x8) (or (>= (- y8 0.4555774508) y11) (or (>= (- y11 0.1402133265) y8))))) 
(and (or (<= (+ x8 0.2511254795) x12) (or (<= (+ x12 0.0321034065) x8) (or (>= (- y8 0.4555774508) y12) (or (>= (- y12 0.0654806736) y8))))) 
(and (or (<= (+ x8 0.2511254795) x13) (or (<= (+ x13 0.4162695144) x8) (or (>= (- y8 0.4555774508) y13) (or (>= (- y13 0.052800478) y8))))) 
(and (or (<= (+ x8 0.2511254795) x14) (or (<= (+ x14 0.9070785538) x8) (or (>= (- y8 0.4555774508) y14) (or (>= (- y14 0.0256361089) y8))))) 
(and (or (<= (+ x9 0.4934277501) x10) (or (<= (+ x10 0.6799158407) x9) (or (>= (- y9 0.2215045414) y10) (or (>= (- y10 0.1749079819) y9))))) 
(and (or (<= (+ x9 0.4934277501) x11) (or (<= (+ x11 0.4113798172) x9) (or (>= (- y9 0.2215045414) y11) (or (>= (- y11 0.1402133265) y9))))) 
(and (or (<= (+ x9 0.4934277501) x12) (or (<= (+ x12 0.0321034065) x9) (or (>= (- y9 0.2215045414) y12) (or (>= (- y12 0.0654806736) y9))))) 
(and (or (<= (+ x9 0.4934277501) x13) (or (<= (+ x13 0.4162695144) x9) (or (>= (- y9 0.2215045414) y13) (or (>= (- y13 0.052800478) y9))))) 
(and (or (<= (+ x9 0.4934277501) x14) (or (<= (+ x14 0.9070785538) x9) (or (>= (- y9 0.2215045414) y14) (or (>= (- y14 0.0256361089) y9))))) 
(and (or (<= (+ x10 0.6799158407) x11) (or (<= (+ x11 0.4113798172) x10) (or (>= (- y10 0.1749079819) y11) (or (>= (- y11 0.1402133265) y10))))) 
(and (or (<= (+ x10 0.6799158407) x12) (or (<= (+ x12 0.0321034065) x10) (or (>= (- y10 0.1749079819) y12) (or (>= (- y12 0.0654806736) y10))))) 
(and (or (<= (+ x10 0.6799158407) x13) (or (<= (+ x13 0.4162695144) x10) (or (>= (- y10 0.1749079819) y13) (or (>= (- y13 0.052800478) y10))))) 
(and (or (<= (+ x10 0.6799158407) x14) (or (<= (+ x14 0.9070785538) x10) (or (>= (- y10 0.1749079819) y14) (or (>= (- y14 0.0256361089) y10))))) 
(and (or (<= (+ x11 0.4113798172) x12) (or (<= (+ x12 0.0321034065) x11) (or (>= (- y11 0.1402133265) y12) (or (>= (- y12 0.0654806736) y11))))) 
(and (or (<= (+ x11 0.4113798172) x13) (or (<= (+ x13 0.4162695144) x11) (or (>= (- y11 0.1402133265) y13) (or (>= (- y13 0.052800478) y11))))) 
(and (or (<= (+ x11 0.4113798172) x14) (or (<= (+ x14 0.9070785538) x11) (or (>= (- y11 0.1402133265) y14) (or (>= (- y14 0.0256361089) y11))))) 
(and (or (<= (+ x12 0.0321034065) x13) (or (<= (+ x13 0.4162695144) x12) (or (>= (- y12 0.0654806736) y13) (or (>= (- y13 0.052800478) y12))))) 
(and (or (<= (+ x12 0.0321034065) x14) (or (<= (+ x14 0.9070785538) x12) (or (>= (- y12 0.0654806736) y14) (or (>= (- y14 0.0256361089) y12))))) 
(and (or (<= (+ x13 0.4162695144) x14) (or (<= (+ x14 0.9070785538) x13) (or (>= (- y13 0.052800478) y14) (or (>= (- y14 0.0256361089) y13))))) )))))))))))))))))))))))))))))))))))))))))))))))))))))))))))))))))))))))))))))))))))))))))))))))))))))))))))))))))))))))))))))))))))))))))))))))))))))))))))))))))))))))))))))))))))))))))))))))))))))))))))))))))))))))
(minimize c)
(check-sat)
(get-objectives)
(exit)
